c Sudoku solution
p cnf 729 0
167 0
236 0
264 0
299 0
319 0
356 0
385 0
459 0
149 0
547 0
573 0
592 0
612 0
648 0
661 0
697 0
771 0
783 0
816 0
825 0
851 0
868 0
894 0
918 0
798 0
933 0
921 0
843 0
977 0
995 0
986 0
837 0
714 0
757 0
969 0
287 0
327 0
417 0
341 0
211 0
393 0
362 0
245 0
515 0
554 0
566 0
113 0
135 0
158 0
253 0
732 0
729 0
528 0
222 0
124 0
338 0
374 0
278 0
944 0
952 0
442 0
746 0
765 0
655 0
463 0
426 0
623 0
475 0
488 0
434 0
531 0
639 0
491 0
589 0
676 0
684 0
172 0
181 0
196 0
879 0
882 0
